; DUP4 SWAP1 SWAP2 SWAP1 SWAP2 POP => POP DUP3 SWAP1
(set-option :produce-proofs true)
; 
(set-info :status unknown)
(declare-fun storage_t ((_ BitVec 256) (_ BitVec 256) (_ BitVec 256) (_ BitVec 256) Int (_ BitVec 256)) (_ BitVec 256))
(declare-fun storage_s ((_ BitVec 256) (_ BitVec 256) (_ BitVec 256) (_ BitVec 256) Int (_ BitVec 256)) (_ BitVec 256))
(declare-fun exc_halt_t (Int) Bool)
(declare-fun exc_halt_s (Int) Bool)
(declare-fun stack_t ((_ BitVec 256) (_ BitVec 256) (_ BitVec 256) (_ BitVec 256) Int (_ BitVec 6)) (_ BitVec 256))
(declare-fun stack_s ((_ BitVec 256) (_ BitVec 256) (_ BitVec 256) (_ BitVec 256) Int (_ BitVec 6)) (_ BitVec 256))
(declare-fun sc_t (Int) (_ BitVec 6))
(declare-fun sc_s (Int) (_ BitVec 6))
(declare-fun used_gas_t ((_ BitVec 256) (_ BitVec 256) (_ BitVec 256) (_ BitVec 256) Int) Int)
(declare-fun used_gas_s ((_ BitVec 256) (_ BitVec 256) (_ BitVec 256) (_ BitVec 256) Int) Int)
(assert
 (exists ((x_0 (_ BitVec 256)) (x_1 (_ BitVec 256)) (x_2 (_ BitVec 256)) (x_3 (_ BitVec 256)) )(let (($x3321 (forall ((w (_ BitVec 256)) )(let ((?x5991 (storage_t x_0 x_1 x_2 x_3 3 w)))
 (let ((?x2007 (storage_s x_0 x_1 x_2 x_3 6 w)))
 (= ?x2007 ?x5991))))
 ))
 (let (($x5429 (exc_halt_t 3)))
 (let (($x7121 (exc_halt_s 6)))
 (let (($x11174 (= $x7121 $x5429)))
 (let (($x6645 (forall ((n (_ BitVec 6)) )(let ((?x10526 (stack_t x_0 x_1 x_2 x_3 3 n)))
 (let ((?x5601 (stack_s x_0 x_1 x_2 x_3 6 n)))
 (let (($x6998 (= ?x5601 ?x10526)))
 (let ((?x7621 (sc_t 3)))
 (let (($x438 (bvsle ?x7621 n)))
 (or $x438 $x6998)))))))
 ))
 (let ((?x7621 (sc_t 3)))
 (let ((?x9114 (sc_s 6)))
 (let (($x2649 (= ?x9114 ?x7621)))
 (let ((?x11593 (used_gas_t x_0 x_1 x_2 x_3 0)))
 (let ((?x4303 (used_gas_s x_0 x_1 x_2 x_3 0)))
 (let (($x3707 (= ?x4303 ?x11593)))
 (let (($x1470 (forall ((w (_ BitVec 256)) )(let ((?x2103 (storage_t x_0 x_1 x_2 x_3 0 w)))
 (let ((?x6743 (storage_s x_0 x_1 x_2 x_3 0 w)))
 (= ?x6743 ?x2103))))
 ))
 (let (($x56 (exc_halt_t 0)))
 (let (($x57 (exc_halt_s 0)))
 (let (($x58 (= $x57 $x56)))
 (let (($x11377 (forall ((n (_ BitVec 6)) )(let ((?x63 (sc_t 0)))
 (let (($x11318 (bvsle ?x63 n)))
 (let ((?x3962 (stack_t x_0 x_1 x_2 x_3 0 n)))
 (let ((?x7340 (stack_s x_0 x_1 x_2 x_3 0 n)))
 (let (($x11107 (= ?x7340 ?x3962)))
 (or $x11107 $x11318)))))))
 ))
 (let ((?x63 (sc_t 0)))
 (let ((?x72 (sc_s 0)))
 (let (($x73 (= ?x72 ?x63)))
 (let (($x11928 (= $x5429 (or (exc_halt_t 2) (not (bvsle (_ bv0 6) (bvadd (_ bv62 6) (sc_t 2))))))))
 (let (($x2986 (forall ((w (_ BitVec 256)) )(let ((?x4361 (storage_t x_0 x_1 x_2 x_3 2 w)))
 (let ((?x5991 (storage_t x_0 x_1 x_2 x_3 3 w)))
 (= ?x5991 ?x4361))))
 ))
 (let (($x9978 (forall ((n (_ BitVec 6)) )(let ((?x10979 (stack_t x_0 x_1 x_2 x_3 2 n)))
 (let ((?x10526 (stack_t x_0 x_1 x_2 x_3 3 n)))
 (let (($x11080 (= ?x10526 ?x10979)))
 (or (bvsle (bvadd (_ bv62 6) (sc_t 2)) n) $x11080)))))
 ))
 (let ((?x8890 (sc_t 2)))
 (let (($x5385 (= ?x7621 ?x8890)))
 (let ((?x9307 (used_gas_t x_0 x_1 x_2 x_3 3)))
 (let (($x7262 (= ?x9307 (+ 3 (used_gas_t x_0 x_1 x_2 x_3 2)))))
 (let ((?x6760 (bvadd (_ bv63 6) ?x8890)))
 (let ((?x11948 (stack_t x_0 x_1 x_2 x_3 2 ?x6760)))
 (let ((?x150 (bvadd (_ bv62 6) ?x7621)))
 (let ((?x10881 (stack_t x_0 x_1 x_2 x_3 3 ?x150)))
 (let (($x11801 (= ?x10881 ?x11948)))
 (let ((?x4746 (bvadd (_ bv62 6) ?x8890)))
 (let ((?x6780 (stack_t x_0 x_1 x_2 x_3 2 ?x4746)))
 (let ((?x9251 (bvadd (_ bv63 6) ?x7621)))
 (let ((?x4849 (stack_t x_0 x_1 x_2 x_3 3 ?x9251)))
 (let (($x9137 (= ?x4849 ?x6780)))
 (let (($x11985 (exc_halt_t 1)))
 (let (($x6169 (not (bvsle (_ bv0 6) (bvadd (_ bv61 6) (sc_t 1))))))
 (let (($x808 (not (= ((_ extract 6 6) (bvadd (_ bv1 7) (concat (_ bv0 1) (sc_t 1)))) (_ bv0 1)))))
 (let (($x7505 (exc_halt_t 2)))
 (let (($x10211 (forall ((w (_ BitVec 256)) )(let ((?x548 (storage_t x_0 x_1 x_2 x_3 1 w)))
 (let ((?x4361 (storage_t x_0 x_1 x_2 x_3 2 w)))
 (= ?x4361 ?x548))))
 ))
 (let (($x969 (forall ((n (_ BitVec 6)) )(let ((?x1280 (stack_t x_0 x_1 x_2 x_3 1 n)))
 (let ((?x10979 (stack_t x_0 x_1 x_2 x_3 2 n)))
 (let (($x10875 (= ?x10979 ?x1280)))
 (let ((?x4554 (sc_t 1)))
 (let ((?x338 (bvadd (_ bv61 6) ?x4554)))
 (let (($x5294 (bvsle ?x338 n)))
 (or $x5294 $x10875))))))))
 ))
 (let (($x422 (= ?x8890 (bvadd (_ bv1 6) (sc_t 1)))))
 (let ((?x10707 (used_gas_t x_0 x_1 x_2 x_3 2)))
 (let (($x2064 (= ?x10707 (+ 3 (used_gas_t x_0 x_1 x_2 x_3 1)))))
 (let ((?x4554 (sc_t 1)))
 (let ((?x6802 (bvadd (_ bv63 6) ?x4554)))
 (let ((?x11471 (stack_t x_0 x_1 x_2 x_3 1 ?x6802)))
 (let (($x4188 (= (stack_t x_0 x_1 x_2 x_3 2 ?x6802) ?x11471)))
 (let ((?x2315 (bvadd (_ bv62 6) ?x4554)))
 (let ((?x3000 (stack_t x_0 x_1 x_2 x_3 1 ?x2315)))
 (let (($x5387 (= (stack_t x_0 x_1 x_2 x_3 2 ?x2315) ?x3000)))
 (let ((?x338 (bvadd (_ bv61 6) ?x4554)))
 (let ((?x9071 (stack_t x_0 x_1 x_2 x_3 1 ?x338)))
 (let (($x7206 (= ?x11948 ?x9071)))
 (let (($x2070 (= $x11985 (or $x56 (not (bvsle (_ bv0 6) (bvadd (_ bv63 6) ?x63)))))))
 (let (($x2703 (forall ((w (_ BitVec 256)) )(let ((?x2103 (storage_t x_0 x_1 x_2 x_3 0 w)))
 (let ((?x548 (storage_t x_0 x_1 x_2 x_3 1 w)))
 (= ?x548 ?x2103))))
 ))
 (let (($x7893 (forall ((n (_ BitVec 6)) )(let ((?x63 (sc_t 0)))
 (let ((?x3574 (bvadd (_ bv63 6) ?x63)))
 (let (($x6844 (bvsle ?x3574 n)))
 (let ((?x3962 (stack_t x_0 x_1 x_2 x_3 0 n)))
 (let ((?x1280 (stack_t x_0 x_1 x_2 x_3 1 n)))
 (let (($x2920 (= ?x1280 ?x3962)))
 (or $x2920 $x6844))))))))
 ))
 (let ((?x3574 (bvadd (_ bv63 6) ?x63)))
 (let (($x1556 (= ?x4554 ?x3574)))
 (let (($x6776 (= $x7121 (or (exc_halt_s 5) (not (bvsle (_ bv0 6) (bvadd (_ bv63 6) (sc_s 5))))))))
 (let (($x6265 (forall ((w (_ BitVec 256)) )(let ((?x3900 (storage_s x_0 x_1 x_2 x_3 5 w)))
 (let ((?x2007 (storage_s x_0 x_1 x_2 x_3 6 w)))
 (= ?x2007 ?x3900))))
 ))
 (let (($x6359 (forall ((n (_ BitVec 6)) )(let ((?x9017 (stack_s x_0 x_1 x_2 x_3 5 n)))
 (let ((?x5601 (stack_s x_0 x_1 x_2 x_3 6 n)))
 (let (($x11541 (= ?x5601 ?x9017)))
 (let ((?x4319 (sc_s 5)))
 (let ((?x9002 (bvadd (_ bv63 6) ?x4319)))
 (let (($x393 (bvsle ?x9002 n)))
 (or $x393 $x11541))))))))
 ))
 (let ((?x4319 (sc_s 5)))
 (let ((?x9002 (bvadd (_ bv63 6) ?x4319)))
 (let (($x8514 (= ?x9114 ?x9002)))
 (let ((?x8586 (used_gas_s x_0 x_1 x_2 x_3 6)))
 (let (($x1862 (exc_halt_s 5)))
 (let (($x1481 (= $x1862 (or (exc_halt_s 4) (not (bvsle (_ bv0 6) (bvadd (_ bv61 6) (sc_s 4))))))))
 (let (($x4902 (forall ((w (_ BitVec 256)) )(let ((?x9821 (storage_s x_0 x_1 x_2 x_3 4 w)))
 (let ((?x3900 (storage_s x_0 x_1 x_2 x_3 5 w)))
 (= ?x3900 ?x9821))))
 ))
 (let (($x4028 (forall ((n (_ BitVec 6)) )(let ((?x9550 (stack_s x_0 x_1 x_2 x_3 4 n)))
 (let ((?x9017 (stack_s x_0 x_1 x_2 x_3 5 n)))
 (let (($x10835 (= ?x9017 ?x9550)))
 (or (bvsle (bvadd (_ bv61 6) (sc_s 4)) n) $x10835)))))
 ))
 (let ((?x9433 (sc_s 4)))
 (let (($x1752 (= ?x4319 ?x9433)))
 (let ((?x3383 (used_gas_s x_0 x_1 x_2 x_3 5)))
 (let (($x2218 (= ?x3383 (+ 3 (used_gas_s x_0 x_1 x_2 x_3 4)))))
 (let ((?x11364 (bvadd (_ bv62 6) ?x9433)))
 (let ((?x7037 (stack_s x_0 x_1 x_2 x_3 4 ?x11364)))
 (let ((?x3570 (bvadd (_ bv62 6) ?x4319)))
 (let ((?x3994 (stack_s x_0 x_1 x_2 x_3 5 ?x3570)))
 (let (($x3033 (= ?x3994 ?x7037)))
 (let ((?x3395 (bvadd (_ bv63 6) ?x9433)))
 (let ((?x11385 (stack_s x_0 x_1 x_2 x_3 4 ?x3395)))
 (let ((?x7985 (bvadd (_ bv61 6) ?x4319)))
 (let ((?x1625 (stack_s x_0 x_1 x_2 x_3 5 ?x7985)))
 (let (($x5978 (= ?x1625 ?x11385)))
 (let ((?x5052 (bvadd (_ bv61 6) ?x9433)))
 (let ((?x11974 (stack_s x_0 x_1 x_2 x_3 4 ?x5052)))
 (let ((?x3918 (stack_s x_0 x_1 x_2 x_3 5 ?x9002)))
 (let (($x10770 (= ?x3918 ?x11974)))
 (let (($x9175 (exc_halt_s 4)))
 (let (($x1274 (= $x9175 (or (exc_halt_s 3) (not (bvsle (_ bv0 6) (bvadd (_ bv62 6) (sc_s 3))))))))
 (let (($x400 (forall ((w (_ BitVec 256)) )(let ((?x10424 (storage_s x_0 x_1 x_2 x_3 3 w)))
 (let ((?x9821 (storage_s x_0 x_1 x_2 x_3 4 w)))
 (= ?x9821 ?x10424))))
 ))
 (let (($x11501 (forall ((n (_ BitVec 6)) )(let ((?x3575 (stack_s x_0 x_1 x_2 x_3 3 n)))
 (let ((?x9550 (stack_s x_0 x_1 x_2 x_3 4 n)))
 (let (($x10474 (= ?x9550 ?x3575)))
 (let ((?x3851 (sc_s 3)))
 (let ((?x8089 (bvadd (_ bv62 6) ?x3851)))
 (let (($x1497 (bvsle ?x8089 n)))
 (or $x1497 $x10474))))))))
 ))
 (let ((?x3851 (sc_s 3)))
 (let (($x9342 (= ?x9433 ?x3851)))
 (let ((?x7118 (used_gas_s x_0 x_1 x_2 x_3 4)))
 (let (($x2698 (= ?x7118 (+ 3 (used_gas_s x_0 x_1 x_2 x_3 3)))))
 (let ((?x1738 (bvadd (_ bv63 6) ?x3851)))
 (let ((?x7409 (stack_s x_0 x_1 x_2 x_3 3 ?x1738)))
 (let (($x3317 (= ?x7037 ?x7409)))
 (let ((?x8089 (bvadd (_ bv62 6) ?x3851)))
 (let ((?x11659 (stack_s x_0 x_1 x_2 x_3 3 ?x8089)))
 (let (($x1831 (= ?x11385 ?x11659)))
 (let (($x8103 (exc_halt_s 3)))
 (let (($x8169 (= $x8103 (or (exc_halt_s 2) (not (bvsle (_ bv0 6) (bvadd (_ bv61 6) (sc_s 2))))))))
 (let (($x5352 (forall ((w (_ BitVec 256)) )(let ((?x1967 (storage_s x_0 x_1 x_2 x_3 2 w)))
 (let ((?x10424 (storage_s x_0 x_1 x_2 x_3 3 w)))
 (= ?x10424 ?x1967))))
 ))
 (let (($x11952 (forall ((n (_ BitVec 6)) )(let ((?x5322 (stack_s x_0 x_1 x_2 x_3 2 n)))
 (let ((?x3575 (stack_s x_0 x_1 x_2 x_3 3 n)))
 (let (($x2854 (= ?x3575 ?x5322)))
 (let ((?x2272 (sc_s 2)))
 (let ((?x3143 (bvadd (_ bv61 6) ?x2272)))
 (let (($x1466 (bvsle ?x3143 n)))
 (or $x1466 $x2854))))))))
 ))
 (let ((?x2272 (sc_s 2)))
 (let (($x5381 (= ?x3851 ?x2272)))
 (let ((?x10754 (used_gas_s x_0 x_1 x_2 x_3 3)))
 (let (($x2862 (= ?x10754 (+ 3 (used_gas_s x_0 x_1 x_2 x_3 2)))))
 (let ((?x7947 (bvadd (_ bv62 6) ?x2272)))
 (let ((?x260 (stack_s x_0 x_1 x_2 x_3 2 ?x7947)))
 (let (($x689 (= ?x11659 ?x260)))
 (let ((?x9000 (bvadd (_ bv63 6) ?x2272)))
 (let ((?x10558 (stack_s x_0 x_1 x_2 x_3 2 ?x9000)))
 (let ((?x2726 (bvadd (_ bv61 6) ?x3851)))
 (let ((?x6239 (stack_s x_0 x_1 x_2 x_3 3 ?x2726)))
 (let (($x10052 (exc_halt_s 2)))
 (let (($x11486 (= $x10052 (or (exc_halt_s 1) (not (bvsle (_ bv0 6) (bvadd (_ bv62 6) (sc_s 1))))))))
 (let (($x7373 (forall ((w (_ BitVec 256)) )(let ((?x4803 (storage_s x_0 x_1 x_2 x_3 1 w)))
 (let ((?x1967 (storage_s x_0 x_1 x_2 x_3 2 w)))
 (= ?x1967 ?x4803))))
 ))
 (let (($x3048 (forall ((n (_ BitVec 6)) )(let ((?x154 (sc_s 1)))
 (let ((?x8244 (bvadd (_ bv62 6) ?x154)))
 (let (($x6954 (bvsle ?x8244 n)))
 (let ((?x6880 (stack_s x_0 x_1 x_2 x_3 1 n)))
 (let ((?x5322 (stack_s x_0 x_1 x_2 x_3 2 n)))
 (let (($x960 (= ?x5322 ?x6880)))
 (or $x960 $x6954))))))))
 ))
 (let ((?x154 (sc_s 1)))
 (let (($x5959 (= ?x2272 ?x154)))
 (let ((?x2941 (used_gas_s x_0 x_1 x_2 x_3 2)))
 (let (($x8521 (= ?x2941 (+ 3 (used_gas_s x_0 x_1 x_2 x_3 1)))))
 (let ((?x8244 (bvadd (_ bv62 6) ?x154)))
 (let ((?x1790 (stack_s x_0 x_1 x_2 x_3 1 ?x8244)))
 (let (($x8708 (= ?x10558 ?x1790)))
 (let (($x1465 (not (= ((_ extract 6 6) (bvadd (_ bv1 7) (concat (_ bv0 1) ?x72))) (_ bv0 1)))))
 (let (($x8780 (exc_halt_s 1)))
 (let (($x1118 (forall ((w (_ BitVec 256)) )(let ((?x6743 (storage_s x_0 x_1 x_2 x_3 0 w)))
 (let ((?x4803 (storage_s x_0 x_1 x_2 x_3 1 w)))
 (= ?x4803 ?x6743))))
 ))
 (let (($x10884 (forall ((n (_ BitVec 6)) )(let ((?x7340 (stack_s x_0 x_1 x_2 x_3 0 n)))
 (let ((?x6880 (stack_s x_0 x_1 x_2 x_3 1 n)))
 (let (($x7806 (= ?x6880 ?x7340)))
 (or (bvsle (bvadd (_ bv60 6) (sc_s 0)) n) $x7806)))))
 ))
 (let (($x5475 (= ?x154 (bvadd (_ bv1 6) ?x72))))
 (let ((?x2119 (used_gas_s x_0 x_1 x_2 x_3 1)))
 (let (($x396 (= ?x2119 (+ 3 ?x4303))))
 (let ((?x10288 (bvadd (_ bv63 6) ?x72)))
 (let ((?x11518 (stack_s x_0 x_1 x_2 x_3 0 ?x10288)))
 (let (($x1441 (= (stack_s x_0 x_1 x_2 x_3 1 ?x10288) ?x11518)))
 (let ((?x10468 (bvadd (_ bv62 6) ?x72)))
 (let ((?x4756 (stack_s x_0 x_1 x_2 x_3 0 ?x10468)))
 (let (($x7387 (= (stack_s x_0 x_1 x_2 x_3 1 (bvadd (_ bv61 6) ?x72)) (stack_s x_0 x_1 x_2 x_3 0 (bvadd (_ bv61 6) ?x72)))))
 (let ((?x4854 (bvadd (_ bv60 6) ?x72)))
 (let ((?x9911 (stack_s x_0 x_1 x_2 x_3 0 ?x4854)))
 (let (($x2229 (forall ((w (_ BitVec 256)) )(let ((?x6743 (storage_s x_0 x_1 x_2 x_3 0 w)))
 (= ?x6743 (_ bv0 256))))
 ))
 (let (($x1717 (= ?x4303 0)))
 (let (($x3971 (not $x57)))
 (let (($x3572 (= (stack_s x_0 x_1 x_2 x_3 0 (_ bv3 6)) x_3)))
 (let (($x11059 (= (stack_s x_0 x_1 x_2 x_3 0 (_ bv2 6)) x_2)))
 (let (($x9341 (= (stack_s x_0 x_1 x_2 x_3 0 (_ bv1 6)) x_1)))
 (let (($x10662 (= (stack_s x_0 x_1 x_2 x_3 0 (_ bv0 6)) x_0)))
 (let (($x11523 (= ?x72 (_ bv4 6))))
 (and $x11523 $x10662 $x9341 $x11059 $x3572 $x3971 $x1717 $x2229 (= (stack_s x_0 x_1 x_2 x_3 1 (bvadd (_ bv63 6) ?x154)) ?x9911) (= (stack_s x_0 x_1 x_2 x_3 1 ?x4854) ?x9911) $x7387 (= (stack_s x_0 x_1 x_2 x_3 1 ?x10468) ?x4756) $x1441 $x396 $x5475 $x10884 $x1118 (= $x8780 (or $x57 $x1465 (not (bvsle (_ bv0 6) ?x4854)))) $x8708 (= ?x260 (stack_s x_0 x_1 x_2 x_3 1 (bvadd (_ bv63 6) ?x154))) $x8521 $x5959 $x3048 $x7373 $x11486 (= ?x7409 (stack_s x_0 x_1 x_2 x_3 2 (bvadd (_ bv61 6) ?x2272))) (= ?x6239 ?x10558) $x689 $x2862 $x5381 $x11952 $x5352 $x8169 $x1831 $x3317 $x2698 $x9342 $x11501 $x400 $x1274 $x10770 $x5978 $x3033 $x2218 $x1752 $x4028 $x4902 $x1481 (= ?x8586 (+ 2 ?x3383)) $x8514 $x6359 $x6265 $x6776 (= (used_gas_t x_0 x_1 x_2 x_3 1) (+ 2 ?x11593)) $x1556 $x7893 $x2703 $x2070 $x7206 (= (stack_t x_0 x_1 x_2 x_3 2 ?x338) ?x9071) $x5387 $x4188 $x2064 $x422 $x969 $x10211 (= $x7505 (or $x808 $x6169 $x11985)) $x9137 $x11801 $x7262 $x5385 $x9978 $x2986 $x11928 $x73 $x11377 $x58 $x1470 $x3707 (not (and $x2649 $x6645 $x11174 $x3321))))))))))))))))))))))))))))))))))))))))))))))))))))))))))))))))))))))))))))))))))))))))))))))))))))))))))))))))))))))))))))))))))))))))))))))))))))))))))))
 )
(check-sat)
(get-proof)
